(set-option :produce-proofs true)
(set-logic AUFLIA)
(declare-fun P ( Int) Bool)
(declare-fun Q ( Int Int) Bool)
(assert (! (and (forall ((x Int)) (exists ((y Int)) (Q x y))) (Q 5 7)) :named IP_0))
(assert (! (and (forall ((x Int)) (=> (P x) (forall ((y Int)) (not (Q x y))))) (P 3)) :named IP_1))
(check-sat)
(get-interpolants IP_0 IP_1)
(exit)
